* ENCODING=ISO-8859-1
NAME          CPLEX
ROWS
 N  obj1    
 G  c1      
 G  c2      
 G  c3      
 G  c4      
 G  c5      
 G  c6      
 G  c7      
 G  c8      
 G  c9      
 G  c10     
 G  c11     
 G  c12     
 G  c13     
 G  c14     
 G  c15     
 G  c16     
 G  c17     
 G  c18     
 G  c19     
 G  c20     
 G  c21     
 G  c22     
 G  c23     
 G  c24     
 G  c25     
 G  c26     
 G  c27     
 G  c28     
 G  c29     
 G  c30     
 G  c31     
 G  c32     
 G  c33     
 G  c34     
 G  c35     
 G  c36     
 G  c37     
 G  c38     
 G  c39     
 G  c40     
COLUMNS
    MARK0000  'MARKER'                 'INTORG'
    x1        obj1                            1
    x1        c4                            377
    x1        c31                           490
    x1        c40                           530
    x2        obj1                            1
    x2        c3                            681
    x2        c7                            952
    x2        c23                           846
    x2        c30                           333
    x2        c31                           528
    x2        c32                           963
    x3        obj1                            1
    x3        c20                           245
    x4        obj1                            1
    x4        c24                           304
    x4        c27                           292
    x4        c38                           918
    x5        obj1                            1
    x5        c10                           962
    x5        c21                           391
    x5        c26                           988
    x5        c40                           608
    x6        obj1                            1
    x6        c17                           487
    x7        obj1                            1
    x7        c6                            744
    x7        c18                           851
    x7        c39                           868
    x7        c40                           383
    x8        obj1                            1
    x8        c10                           963
    x8        c11                           482
    x8        c24                           991
    x8        c35                           820
    x8        c39                           620
    x9        obj1                            1
    x9        c3                            279
    x9        c14                           299
    x9        c19                           500
    x9        c28                           936
    x9        c33                           369
    x9        c40                           689
    x10       obj1                            1
    x10       c15                           227
    x10       c16                           859
    x10       c37                           792
    x11       obj1                            1
    x11       c5                            135
    x11       c7                            214
    x11       c15                           874
    x11       c25                           942
    x11       c28                           271
    x11       c33                           457
    x12       obj1                            1
    x12       c16                           378
    x12       c21                           399
    x12       c30                           983
    x13       obj1                            1
    x13       c8                            875
    x13       c9                            676
    x13       c10                           267
    x13       c18                           668
    x13       c21                           970
    x13       c28                           822
    x13       c35                           788
    x13       c39                           742
    x14       obj1                            1
    x14       c3                            710
    x15       obj1                            1
    x15       c18                           951
    x15       c20                           381
    x15       c21                           405
    x15       c22                           335
    x15       c24                           746
    x15       c27                           276
    x15       c33                           692
    x15       c38                           371
    x16       obj1                            1
    x16       c9                            354
    x16       c11                           625
    x16       c14                           450
    x16       c27                           434
    x16       c31                           207
    x17       obj1                            1
    x17       c8                            717
    x17       c12                           692
    x17       c14                           950
    x17       c15                           280
    x17       c18                           982
    x17       c19                           510
    x17       c23                           687
    x17       c40                           335
    x18       obj1                            1
    x18       c13                           343
    x18       c31                           533
    x18       c32                           565
    x19       obj1                            1
    x19       c7                            424
    x19       c25                           686
    x19       c28                           490
    x20       obj1                            1
    x20       c18                           693
    x20       c30                           754
    x20       c32                           177
    x20       c39                           491
    x21       obj1                            1
    x21       c3                            467
    x21       c14                           690
    x21       c23                           859
    x21       c24                           242
    x21       c25                           252
    x21       c29                           155
    x21       c37                           968
    x21       c38                           757
    x22       obj1                            1
    x22       c9                            182
    x22       c11                           549
    x22       c17                           391
    x22       c22                           319
    x22       c28                           330
    x22       c36                           253
    x23       obj1                            1
    x23       c20                           753
    x23       c31                           545
    x23       c33                           438
    x24       obj1                            1
    x24       c10                           274
    x24       c14                           328
    x24       c27                           221
    x25       obj1                            1
    x25       c1                            855
    x25       c15                           242
    x25       c26                           187
    x25       c38                           325
    x26       obj1                            1
    x26       c35                           690
    x26       c38                           320
    x27       obj1                            1
    x27       c7                            557
    x27       c15                           492
    x27       c20                           946
    x28       obj1                            1
    x28       c2                            280
    x28       c9                            311
    x28       c20                           940
    x28       c24                           961
    x29       obj1                            1
    x29       c7                            928
    x29       c10                           361
    x29       c20                           840
    x29       c33                           501
    x30       obj1                            1
    x30       c3                            508
    x30       c22                           630
    x30       c28                           758
    x30       c32                           816
    x30       c36                           541
    x31       obj1                            1
    x31       c3                            714
    x31       c23                           710
    x32       obj1                            1
    x32       c7                            234
    x32       c24                           414
    x32       c37                           781
    x32       c40                           852
    x33       obj1                            1
    x33       c1                            803
    x33       c6                            530
    x33       c13                           214
    x33       c20                           923
    x34       obj1                            1
    x34       c9                            443
    x34       c11                           511
    x34       c16                           352
    x34       c24                           266
    x35       obj1                            1
    x35       c4                            717
    x35       c13                           243
    x35       c19                           649
    x36       obj1                            1
    x36       c2                            162
    x36       c16                           283
    x36       c22                           941
    x36       c31                           586
    x36       c38                           144
    x37       obj1                            1
    x37       c5                            516
    x37       c24                           721
    x37       c27                           118
    x37       c31                           344
    x38       obj1                            1
    x38       c9                            829
    x38       c13                           434
    x38       c25                           913
    x38       c26                           405
    x38       c32                           750
    x39       obj1                            1
    x39       c18                           226
    x39       c20                          1000
    x39       c27                           656
    x39       c34                           594
    x39       c37                           303
    x40       obj1                            1
    x40       c2                            293
    x40       c13                           418
    x40       c17                           409
    x40       c23                           101
    x40       c25                           365
    x41       obj1                            1
    x41       c36                           563
    x41       c38                           373
    x42       obj1                            1
    x42       c17                           406
    x42       c29                           608
    x42       c36                           520
    x43       obj1                            1
    x43       c3                            442
    x43       c6                            771
    x43       c14                           741
    x43       c23                           450
    x43       c33                           181
    x43       c34                           610
    x44       obj1                            1
    x44       c24                           665
    x44       c37                           521
    x45       obj1                            1
    x45       c14                           572
    x46       obj1                            1
    x46       c3                            973
    x46       c14                           766
    x46       c15                           621
    x46       c19                           509
    x46       c23                           711
    x46       c26                           641
    x46       c39                           816
    x47       obj1                            1
    x47       c7                            375
    x47       c34                           262
    x47       c38                           463
    x47       c39                           310
    x47       c40                           999
    x48       obj1                            1
    x48       c1                            419
    x48       c4                            918
    x48       c10                           719
    x48       c12                           413
    x48       c20                           879
    x48       c21                           288
    x49       obj1                            1
    x49       c26                           794
    x49       c27                           383
    x49       c40                           677
    x50       obj1                            1
    x50       c4                            712
    x50       c6                            163
    x50       c10                           862
    x50       c14                           453
    x50       c15                           500
    x50       c23                           710
    x50       c33                           452
    x50       c39                           311
    x51       obj1                            1
    x51       c2                            857
    x51       c5                            307
    x51       c17                           899
    x51       c19                           265
    x51       c22                           594
    x51       c29                           950
    x52       obj1                            1
    x52       c16                           978
    x52       c22                           805
    x52       c28                           706
    x52       c30                           250
    x53       obj1                            1
    x53       c6                            226
    x53       c14                           568
    x53       c21                           321
    x53       c25                           276
    x53       c36                           905
    x54       obj1                            1
    x54       c1                            553
    x54       c10                           435
    x54       c13                           761
    x54       c37                           229
    x55       obj1                            1
    x55       c6                            872
    x55       c7                            957
    x55       c12                           830
    x55       c16                           700
    x55       c17                           504
    x55       c19                           375
    x55       c31                           946
    x56       obj1                            1
    x56       c7                            410
    x56       c10                           633
    x56       c11                           968
    x56       c28                           985
    x57       obj1                            1
    x57       c27                           578
    x57       c29                           220
    x57       c33                           455
    x57       c37                           705
    x58       obj1                            1
    x58       c8                            925
    x58       c15                           535
    x58       c39                           126
    x59       obj1                            1
    x59       c1                            977
    x59       c27                           251
    x59       c38                           981
    x60       obj1                            1
    x60       c9                            326
    x60       c35                           129
    x60       c36                           588
    x61       obj1                            1
    x61       c9                            998
    x61       c18                           981
    x61       c23                           514
    x61       c24                           303
    x61       c31                           713
    x61       c39                           829
    x62       obj1                            1
    x62       c4                            277
    x62       c15                           249
    x62       c17                           694
    x62       c19                           868
    x62       c23                           781
    x62       c26                           275
    x63       obj1                            1
    x63       c3                            894
    x63       c11                           840
    x63       c27                           866
    x63       c29                           477
    x63       c31                           746
    x64       obj1                            1
    x64       c2                            267
    x64       c7                            875
    x64       c10                           601
    x64       c18                           512
    x64       c20                           747
    x64       c30                           108
    x64       c37                           159
    x65       obj1                            1
    x65       c15                           273
    x65       c19                           102
    x65       c25                           996
    x65       c34                           499
    x65       c37                           224
    x66       obj1                            1
    x66       c8                            497
    x66       c15                           209
    x66       c19                           965
    x66       c25                           293
    x66       c29                           178
    x66       c31                           928
    x66       c33                           423
    x66       c37                           210
    x67       obj1                            1
    x67       c3                            706
    x67       c17                           975
    x67       c27                           696
    x68       obj1                            1
    x68       c9                            502
    x68       c10                           721
    x68       c17                           322
    x69       obj1                            1
    x69       c8                            998
    x69       c10                           927
    x69       c16                           311
    x69       c28                           361
    x70       obj1                            1
    x70       c4                            290
    x70       c9                            415
    x70       c17                           416
    x70       c18                           135
    x70       c24                           326
    x70       c28                           123
    x70       c32                           680
    x71       obj1                            1
    x71       c20                           525
    x71       c30                           504
    x71       c39                           226
    x72       obj1                            1
    x72       c20                           956
    x72       c23                           664
    x72       c24                           256
    x72       c31                           964
    x72       c38                           611
    x73       obj1                            1
    x73       c2                            891
    x73       c27                           497
    x73       c28                           300
    x73       c30                           890
    x73       c37                           945
    x73       c38                           761
    x73       c39                           207
    x74       obj1                            1
    x74       c4                            556
    x74       c5                            632
    x74       c11                           212
    x74       c12                           990
    x75       obj1                            1
    x75       c3                            803
    x75       c7                            470
    x75       c9                            251
    x75       c11                           405
    x75       c13                           117
    x75       c18                           624
    x75       c36                           829
    x76       obj1                            1
    x76       c15                           294
    x76       c19                           571
    x76       c35                           890
    x76       c36                           623
    x76       c40                           375
    x77       obj1                            1
    x77       c5                            211
    x77       c9                            670
    x77       c14                           354
    x77       c33                           194
    x78       obj1                            1
    x78       c28                           115
    x78       c39                           737
    x79       obj1                            1
    x79       c3                            172
    x79       c7                            232
    x80       obj1                            1
    x80       c26                           299
    x80       c36                           340
    MARK0001  'MARKER'                 'INTEND'
RHS
    rhs       c1                           1804
    rhs       c2                           1375
    rhs       c3                           3675
    rhs       c4                           1924
    rhs       c5                            901
    rhs       c6                           1653
    rhs       c7                           3314
    rhs       c8                           2006
    rhs       c9                           2979
    rhs       c10                          3863
    rhs       c11                          2296
    rhs       c12                          1463
    rhs       c13                          1265
    rhs       c14                          3086
    rhs       c15                          2398
    rhs       c16                          1931
    rhs       c17                          2752
    rhs       c18                          3312
    rhs       c19                          2657
    rhs       c20                          4568
    rhs       c21                          1387
    rhs       c22                          1812
    rhs       c23                          3517
    rhs       c24                          3098
    rhs       c25                          2362
    rhs       c26                          1795
    rhs       c27                          2634
    rhs       c28                          3099
    rhs       c29                          1294
    rhs       c30                          1911
    rhs       c31                          3765
    rhs       c32                          1976
    rhs       c33                          2081
    rhs       c34                           983
    rhs       c35                          1659
    rhs       c36                          2581
    rhs       c37                          2919
    rhs       c38                          3012
    rhs       c39                          3142
    rhs       c40                          2724
BOUNDS
 LI bnd       x1        0
 LI bnd       x2        0
 LI bnd       x3        0
 LI bnd       x4        0
 LI bnd       x5        0
 LI bnd       x6        0
 LI bnd       x7        0
 LI bnd       x8        0
 LI bnd       x9        0
 LI bnd       x10       0
 LI bnd       x11       0
 LI bnd       x12       0
 LI bnd       x13       0
 LI bnd       x14       0
 LI bnd       x15       0
 LI bnd       x16       0
 LI bnd       x17       0
 LI bnd       x18       0
 LI bnd       x19       0
 LI bnd       x20       0
 LI bnd       x21       0
 LI bnd       x22       0
 LI bnd       x23       0
 LI bnd       x24       0
 LI bnd       x25       0
 LI bnd       x26       0
 LI bnd       x27       0
 LI bnd       x28       0
 LI bnd       x29       0
 LI bnd       x30       0
 LI bnd       x31       0
 LI bnd       x32       0
 LI bnd       x33       0
 LI bnd       x34       0
 LI bnd       x35       0
 LI bnd       x36       0
 LI bnd       x37       0
 LI bnd       x38       0
 LI bnd       x39       0
 LI bnd       x40       0
 LI bnd       x41       0
 LI bnd       x42       0
 LI bnd       x43       0
 LI bnd       x44       0
 LI bnd       x45       0
 LI bnd       x46       0
 LI bnd       x47       0
 LI bnd       x48       0
 LI bnd       x49       0
 LI bnd       x50       0
 LI bnd       x51       0
 LI bnd       x52       0
 LI bnd       x53       0
 LI bnd       x54       0
 LI bnd       x55       0
 LI bnd       x56       0
 LI bnd       x57       0
 LI bnd       x58       0
 LI bnd       x59       0
 LI bnd       x60       0
 LI bnd       x61       0
 LI bnd       x62       0
 LI bnd       x63       0
 LI bnd       x64       0
 LI bnd       x65       0
 LI bnd       x66       0
 LI bnd       x67       0
 LI bnd       x68       0
 LI bnd       x69       0
 LI bnd       x70       0
 LI bnd       x71       0
 LI bnd       x72       0
 LI bnd       x73       0
 LI bnd       x74       0
 LI bnd       x75       0
 LI bnd       x76       0
 LI bnd       x77       0
 LI bnd       x78       0
 LI bnd       x79       0
 LI bnd       x80       0
ENDATA
